n_res = 4;
rc = [ 32, 26, 25, 32 ];
n_tasks = 30;
d = [ 10, 3, 7, 2, 5, 6, 7, 1, 3, 4, 8, 4, 6, 1, 3, 1, 2, 4, 4, 2, 4, 4, 1, 10, 4, 10, 7, 10, 2, 2 ];
rr = [| 10, 1, 3, 6, 3, 10, 7, 8, 8, 10, 1, 4, 9, 6, 7, 4, 2, 8, 4, 8, 2, 2, 3, 8, 3, 3, 9, 9, 8, 8
      | 7, 5, 3, 9, 4, 9, 2, 6, 7, 9, 7, 4, 4, 2, 9, 9, 6, 7, 3, 6, 6, 4, 6, 10, 2, 6, 5, 9, 5, 6
      | 8, 2, 4, 4, 7, 3, 3, 10, 5, 10, 5, 5, 2, 10, 4, 4, 9, 8, 2, 8, 10, 1, 10, 4, 2, 8, 1, 3, 5, 8
      | 10, 10, 10, 9, 5, 8, 10, 3, 10, 4, 6, 9, 7, 8, 7, 5, 8, 9, 6, 1, 4, 6, 10, 9, 4, 5, 6, 5, 8, 8 |];
suc = [ { 2 }, 
        { 3 }, 
        { 4 }, 
        { 5 }, 
        { 6 }, 
        { 7 }, 
        { 8 }, 
        { 9 }, 
        { 10 }, 
        { 11 }, 
        { 12 }, 
        { 13 }, 
        { 14 }, 
        { 15 }, 
        { 16 }, 
        { 17 }, 
        { 18 }, 
        { 19 }, 
        { 20 }, 
        { 21 }, 
        { 22 }, 
        { 23 }, 
        { 24 }, 
        { 25 }, 
        { 26 }, 
        { 27 }, 
        { 28 }, 
        { 29 }, 
        { 30 }, 
        {  }]; 
